300
400 400
1 320 203
2 320 636
3 320 710
4 320 551
5 320 926
6 319 362
7 319 658
8 318 956
9 317 722
10 316 294
11 316 293
12 315 781
13 314 452
14 313 32
15 312 623
16 312 165
17 311 937
18 310 233
19 310 839
20 309 244
21 308 542
22 303 588
23 302 899
24 301 364
25 300 889
26 300 129
27 296 534
28 295 540
29 294 548
30 293 463
31 292 324
32 292 903
33 292 837
34 291 383
35 290 68
36 289 211
37 288 817
38 287 2
39 287 766
40 286 944
41 285 756
42 285 223
43 284 940
44 284 324
45 283 355
46 281 626
47 280 22
48 280 176
49 280 567
50 280 301
51 279 423
52 278 294
53 275 724
54 275 801
55 274 708
56 274 33
57 274 709
58 274 139
59 274 849
60 274 585
61 273 915
62 271 313
63 270 981
64 267 402
65 267 130
66 267 65
67 262 587
68 262 194
69 260 904
70 260 727
71 260 423
72 259 351
73 259 343
74 257 562
75 255 620
76 255 553
77 255 74
78 254 890
79 253 78
80 253 831
81 252 330
82 251 207
83 250 989
84 248 607
85 247 389
86 246 61
87 245 919
88 245 557
89 244 23
90 243 698
91 243 384
92 242 781
93 241 570
94 241 119
95 238 114
96 237 546
97 235 919
98 235 150
99 233 729
100 232 144
101 231 999
102 230 359
103 230 489
104 228 195
105 227 533
106 227 316
107 226 461
108 225 30
109 225 887
110 224 661
111 223 45
112 221 395
113 220 715
114 218 379
115 217 548
116 217 319
117 217 115
118 216 441
119 216 964
120 216 153
121 213 834
122 212 54
123 211 165
124 210 638
125 207 708
126 207 508
127 205 447
128 205 286
129 204 842
130 203 536
131 203 947
132 202 944
133 202 630
134 201 473
135 200 489
136 197 499
137 197 410
138 197 266
139 196 383
140 195 374
141 195 622
142 194 380
143 193 363
144 192 75
145 192 402
146 191 670
147 191 755
148 189 625
149 188 134
150 187 443
151 187 369
152 184 47
153 181 21
154 181 561
155 179 427
156 176 297
157 176 925
158 175 406
159 172 812
160 172 923
161 172 767
162 172 211
163 170 392
164 170 878
165 170 365
166 170 651
167 170 295
168 169 503
169 168 218
170 167 110
171 166 496
172 164 691
173 164 736
174 163 632
175 162 532
176 159 495
177 156 350
178 156 937
179 156 13
180 155 888
181 154 573
182 153 97
183 152 601
184 149 277
185 147 281
186 147 792
187 147 665
188 146 131
189 145 1
190 144 88
191 143 813
192 143 308
193 142 439
194 141 285
195 139 426
196 138 619
197 138 194
198 138 783
199 137 992
200 137 899
201 136 284
202 136 310
203 135 695
204 134 993
205 134 767
206 132 633
207 128 108
208 128 391
209 127 558
210 127 477
211 126 879
212 126 643
213 125 290
214 122 709
215 121 382
216 119 773
217 118 821
218 118 574
219 117 978
220 115 6
221 115 123
222 115 102
223 114 281
224 114 589
225 112 699
226 110 680
227 110 355
228 108 834
229 108 809
230 107 415
231 106 586
232 105 890
233 102 173
234 100 625
235 99 216
236 99 266
237 98 384
238 97 663
239 97 354
240 97 613
241 95 576
242 95 65
243 95 136
244 94 281
245 93 788
246 91 99
247 90 867
248 88 511
249 88 853
250 87 307
251 87 718
252 84 554
253 84 819
254 83 929
255 82 94
256 82 761
257 82 618
258 80 295
259 79 391
260 79 845
261 78 901
262 78 596
263 77 285
264 76 306
265 75 554
266 75 515
267 74 594
268 71 451
269 70 172
270 67 657
271 66 452
272 66 699
273 65 93
274 65 556
275 64 52
276 64 122
277 64 199
278 64 386
279 63 528
280 62 321
281 61 616
282 60 409
283 60 119
284 59 526
285 57 634
286 55 775
287 53 693
288 52 176
289 51 61
290 51 176
291 49 439
292 47 626
293 45 96
294 45 672
295 45 335
296 43 689
297 43 575
298 42 363
299 42 832
300 41 34
